745179
732344
732344
727777
727777
727777
727777
727777
727777
727777
727777
727777
726455
726455
724963
724963
714162
714162
714162
711701
709153
705788
696206
696206
696206
693233
693233
693233
693233
688780
688780
688780
688780
679508
679489
679489
674654
674654
668974
668974
668974
668974
668974
668974
668974
668974
668974
668974
668974
668974
661467
661467
661467
661467
661467
661467
661467
661467
660533
660533
660533
660488
660488
660488
660488
654071
654071
654071
654071
654071
654071
654071
654071
650709
650709
650709
650709
650709
650709
650709
650709
650709
650709
650709
650709
650709
650709
650709
650709
650709
650709
650709
650709
650709
650709
650709
647863
647863
647863
647863
